p cnf 20 60
2 -5 -9 14 16 0
-3 5 -7 10 18 0
3 -5 -6 10 17 0
-3 11 13 16 -17 0
-6 8 14 -16 20 0
-2 -7 -11 13 -16 0
6 -12 -13 14 -19 0
6 -7 10 12 -15 0
5 8 -9 -12 -17 0
-5 -8 -9 -12 17 0
4 -6 8 10 15 0
2 3 -7 -12 -19 0
5 -6 -7 12 18 0
-4 6 8 -11 17 0
-2 7 10 13 -18 0
-10 12 -18 19 -20 0
1 -6 9 -10 18 0
-2 -3 16 -18 -19 0
9 10 -16 -18 20 0
1 -3 -9 -16 18 0
3 8 9 -15 -17 0
8 -12 13 18 19 0
1 9 -10 13 15 0
-5 9 -10 13 15 0
-2 -3 10 17 18 0
-6 9 12 13 -18 0
2 3 8 -10 19 0
-1 8 -9 15 16 0
-1 11 -12 -13 14 0
-2 -9 -10 -11 -15 0
-5 7 -9 15 19 0
-3 -5 10 -14 -19 0
1 8 10 12 20 0
3 16 -17 -18 20 0
-5 8 -13 -16 18 0
2 -11 -13 -15 19 0
-2 4 -9 10 20 0
6 8 11 -13 17 0
-3 8 -11 -14 -17 0
2 -3 14 -15 18 0
-1 2 -5 -16 20 0
7 -10 13 17 18 0
-2 3 7 14 15 0
3 4 -6 12 -13 0
-1 -2 4 8 -17 0
-2 -6 16 17 -18 0
-4 6 -7 12 18 0
3 7 -8 18 19 0
-4 -7 -12 -19 20 0
-2 -3 4 7 18 0
-1 3 -10 11 15 0
1 -2 -5 6 -12 0
1 8 -10 -13 -20 0
2 9 -10 14 -18 0
2 -8 9 11 -14 0
-1 2 6 -8 15 0
-2 -5 -9 14 16 0
1 -3 -10 -11 14 0
-1 -5 -10 -11 17 0
2 -15 -16 18 -20 0